c Standarized MaxSat Instance
c{
c "sha1sum": "30447a060d734827dcb3bbbfb4cd0f7adf1ba15e",
c "nvars": 374,
c "ncls": 1135,
c "nhards": 0,
c "nhard_len_stats":
c    { "min": 0, "max": 0, "ave": 0.00,
c      "stddev": 0.00 },
c "nsofts": 1135,
c "nsoft_len_stats":
c    { "min": 1, "max": 4, "ave": 2.96,
c      "stddev": 0.84 },
c "nsoft_wts": 2,
c "soft_wt_stats":
c    { "min": 1, "max": 71, "ave": 66.68,
c      "stddev": 16.84 }
c}
c------------------------------------------------------------
c This instance encodes a supposedly trivial MaxSAT formula.
c The hard part of the formula encodes a cardinality constraint:
c     x1 + ... + x70 <= 32
c Cardinality encoding used is 'mtot'.
c The soft part prefers all the variables to be set to true:
c     x1 = 1, ..., x70 = 1
c As a result, the optimum cost for this formula is 38.
c
p wcnf 374 1135 75686
1 1 0
1 2 0
1 3 0
1 4 0
1 5 0
1 6 0
1 7 0
1 8 0
1 9 0
1 10 0
1 11 0
1 12 0
1 13 0
1 14 0
1 15 0
1 16 0
1 17 0
1 18 0
1 19 0
1 20 0
1 21 0
1 22 0
1 23 0
1 24 0
1 25 0
1 26 0
1 27 0
1 28 0
1 29 0
1 30 0
1 31 0
1 32 0
1 33 0
1 34 0
1 35 0
1 36 0
1 37 0
1 38 0
1 39 0
1 40 0
1 41 0
1 42 0
1 43 0
1 44 0
1 45 0
1 46 0
1 47 0
1 48 0
1 49 0
1 50 0
1 51 0
1 52 0
1 53 0
1 54 0
1 55 0
1 56 0
1 57 0
1 58 0
1 59 0
1 60 0
1 61 0
1 62 0
1 63 0
1 64 0
1 65 0
1 66 0
1 67 0
1 68 0
1 69 0
1 70 0
71 -101 79 108 0
71 -102 80 108 0
71 -103 81 108 0
71 -104 82 108 0
71 -105 83 108 0
71 -106 84 108 0
71 -107 85 108 0
71 -90 79 108 0
71 -91 80 108 0
71 -92 81 108 0
71 -93 82 108 0
71 -94 83 108 0
71 -95 84 108 0
71 -96 85 108 0
71 -90 -101 80 108 0
71 -90 -102 81 108 0
71 -90 -103 82 108 0
71 -90 -104 83 108 0
71 -90 -105 84 108 0
71 -90 -106 85 108 0
71 -90 -107 108 0
71 -91 -101 81 108 0
71 -91 -102 82 108 0
71 -91 -103 83 108 0
71 -91 -104 84 108 0
71 -91 -105 85 108 0
71 -91 -106 108 0
71 -91 -107 79 0
71 -92 -101 82 108 0
71 -92 -102 83 108 0
71 -92 -103 84 108 0
71 -92 -104 85 108 0
71 -92 -105 108 0
71 -92 -106 79 0
71 -92 -107 80 0
71 -93 -101 83 108 0
71 -93 -102 84 108 0
71 -93 -103 85 108 0
71 -93 -104 108 0
71 -93 -105 79 0
71 -93 -106 80 0
71 -93 -107 81 0
71 -94 -101 84 108 0
71 -94 -102 85 108 0
71 -94 -103 108 0
71 -94 -104 79 0
71 -94 -105 80 0
71 -94 -106 81 0
71 -94 -107 82 0
71 -95 -101 85 108 0
71 -95 -102 108 0
71 -95 -103 79 0
71 -95 -104 80 0
71 -95 -105 81 0
71 -95 -106 82 0
71 -95 -107 83 0
71 -96 -101 108 0
71 -96 -102 79 0
71 -96 -103 80 0
71 -96 -104 81 0
71 -96 -105 82 0
71 -96 -106 83 0
71 -96 -107 84 0
71 -108 71 0
71 -97 71 0
71 -108 -97 72 0
71 -98 72 0
71 -108 -98 73 0
71 -99 73 0
71 -108 -99 74 0
71 -100 74 0
71 -108 -100 75 0
71 -86 71 0
71 -108 -86 72 0
71 -87 72 0
71 -108 -87 73 0
71 -88 73 0
71 -108 -88 74 0
71 -89 74 0
71 -108 -89 75 0
71 -86 -97 72 0
71 -108 -86 -97 73 0
71 -86 -98 73 0
71 -108 -86 -98 74 0
71 -86 -99 74 0
71 -108 -86 -99 75 0
71 -86 -100 75 0
71 -108 -86 -100 76 0
71 -87 -97 73 0
71 -108 -87 -97 74 0
71 -87 -98 74 0
71 -108 -87 -98 75 0
71 -87 -99 75 0
71 -108 -87 -99 76 0
71 -87 -100 76 0
71 -108 -87 -100 77 0
71 -88 -97 74 0
71 -108 -88 -97 75 0
71 -88 -98 75 0
71 -108 -88 -98 76 0
71 -88 -99 76 0
71 -108 -88 -99 77 0
71 -88 -100 77 0
71 -108 -88 -100 78 0
71 -89 -97 75 0
71 -108 -89 -97 76 0
71 -89 -98 76 0
71 -108 -89 -98 77 0
71 -89 -99 77 0
71 -108 -89 -99 78 0
71 -89 -100 78 0
71 -108 -89 -100 0
71 -120 101 127 0
71 -121 102 127 0
71 -122 103 127 0
71 -123 104 127 0
71 -124 105 127 0
71 -125 106 127 0
71 -126 107 127 0
71 -111 101 127 0
71 -112 102 127 0
71 -113 103 127 0
71 -114 104 127 0
71 -115 105 127 0
71 -116 106 127 0
71 -117 107 127 0
71 -111 -120 102 127 0
71 -111 -121 103 127 0
71 -111 -122 104 127 0
71 -111 -123 105 127 0
71 -111 -124 106 127 0
71 -111 -125 107 127 0
71 -111 -126 127 0
71 -112 -120 103 127 0
71 -112 -121 104 127 0
71 -112 -122 105 127 0
71 -112 -123 106 127 0
71 -112 -124 107 127 0
71 -112 -125 127 0
71 -112 -126 101 0
71 -113 -120 104 127 0
71 -113 -121 105 127 0
71 -113 -122 106 127 0
71 -113 -123 107 127 0
71 -113 -124 127 0
71 -113 -125 101 0
71 -113 -126 102 0
71 -114 -120 105 127 0
71 -114 -121 106 127 0
71 -114 -122 107 127 0
71 -114 -123 127 0
71 -114 -124 101 0
71 -114 -125 102 0
71 -114 -126 103 0
71 -115 -120 106 127 0
71 -115 -121 107 127 0
71 -115 -122 127 0
71 -115 -123 101 0
71 -115 -124 102 0
71 -115 -125 103 0
71 -115 -126 104 0
71 -116 -120 107 127 0
71 -116 -121 127 0
71 -116 -122 101 0
71 -116 -123 102 0
71 -116 -124 103 0
71 -116 -125 104 0
71 -116 -126 105 0
71 -117 -120 127 0
71 -117 -121 101 0
71 -117 -122 102 0
71 -117 -123 103 0
71 -117 -124 104 0
71 -117 -125 105 0
71 -117 -126 106 0
71 -127 97 0
71 -118 97 0
71 -127 -118 98 0
71 -119 98 0
71 -127 -119 99 0
71 -109 97 0
71 -127 -109 98 0
71 -110 98 0
71 -127 -110 99 0
71 -109 -118 98 0
71 -127 -109 -118 99 0
71 -109 -119 99 0
71 -127 -109 -119 100 0
71 -110 -118 99 0
71 -127 -110 -118 100 0
71 -110 -119 100 0
71 -127 -110 -119 0
71 -137 120 144 0
71 -138 121 144 0
71 -139 122 144 0
71 -140 123 144 0
71 -141 124 144 0
71 -142 125 144 0
71 -143 126 144 0
71 -129 120 144 0
71 -130 121 144 0
71 -131 122 144 0
71 -132 123 144 0
71 -133 124 144 0
71 -134 125 144 0
71 -135 126 144 0
71 -129 -137 121 144 0
71 -129 -138 122 144 0
71 -129 -139 123 144 0
71 -129 -140 124 144 0
71 -129 -141 125 144 0
71 -129 -142 126 144 0
71 -129 -143 144 0
71 -130 -137 122 144 0
71 -130 -138 123 144 0
71 -130 -139 124 144 0
71 -130 -140 125 144 0
71 -130 -141 126 144 0
71 -130 -142 144 0
71 -130 -143 120 0
71 -131 -137 123 144 0
71 -131 -138 124 144 0
71 -131 -139 125 144 0
71 -131 -140 126 144 0
71 -131 -141 144 0
71 -131 -142 120 0
71 -131 -143 121 0
71 -132 -137 124 144 0
71 -132 -138 125 144 0
71 -132 -139 126 144 0
71 -132 -140 144 0
71 -132 -141 120 0
71 -132 -142 121 0
71 -132 -143 122 0
71 -133 -137 125 144 0
71 -133 -138 126 144 0
71 -133 -139 144 0
71 -133 -140 120 0
71 -133 -141 121 0
71 -133 -142 122 0
71 -133 -143 123 0
71 -134 -137 126 144 0
71 -134 -138 144 0
71 -134 -139 120 0
71 -134 -140 121 0
71 -134 -141 122 0
71 -134 -142 123 0
71 -134 -143 124 0
71 -135 -137 144 0
71 -135 -138 120 0
71 -135 -139 121 0
71 -135 -140 122 0
71 -135 -141 123 0
71 -135 -142 124 0
71 -135 -143 125 0
71 -144 118 0
71 -136 118 0
71 -144 -136 119 0
71 -128 118 0
71 -144 -128 119 0
71 -128 -136 119 0
71 -144 -128 -136 0
71 -151 145 0
71 -152 146 0
71 -149 145 0
71 -150 146 0
71 -149 -151 146 0
71 -149 -152 147 0
71 -150 -151 147 0
71 -150 -152 148 0
71 -66 151 0
71 -65 151 0
71 -65 -66 152 0
71 -64 149 0
71 -63 149 0
71 -63 -64 150 0
71 -159 153 0
71 -160 154 0
71 -157 153 0
71 -158 154 0
71 -157 -159 154 0
71 -157 -160 155 0
71 -158 -159 155 0
71 -158 -160 156 0
71 -70 159 0
71 -69 159 0
71 -69 -70 160 0
71 -68 157 0
71 -67 157 0
71 -67 -68 158 0
71 -153 137 161 0
71 -154 138 161 0
71 -155 139 161 0
71 -156 140 161 0
71 -145 137 161 0
71 -146 138 161 0
71 -147 139 161 0
71 -148 140 161 0
71 -145 -153 138 161 0
71 -145 -154 139 161 0
71 -145 -155 140 161 0
71 -145 -156 141 161 0
71 -146 -153 139 161 0
71 -146 -154 140 161 0
71 -146 -155 141 161 0
71 -146 -156 142 161 0
71 -147 -153 140 161 0
71 -147 -154 141 161 0
71 -147 -155 142 161 0
71 -147 -156 143 161 0
71 -148 -153 141 161 0
71 -148 -154 142 161 0
71 -148 -155 143 161 0
71 -148 -156 161 0
71 -161 136 0
71 -170 162 0
71 -171 163 0
71 -167 162 0
71 -168 163 0
71 -169 164 0
71 -167 -170 163 0
71 -167 -171 164 0
71 -168 -170 164 0
71 -168 -171 165 0
71 -169 -170 165 0
71 -169 -171 166 0
71 -58 170 0
71 -57 170 0
71 -57 -58 171 0
71 -56 167 0
71 -172 167 0
71 -173 168 0
71 -172 -56 168 0
71 -173 -56 169 0
71 -55 172 0
71 -54 172 0
71 -54 -55 173 0
71 -180 174 0
71 -181 175 0
71 -178 174 0
71 -179 175 0
71 -178 -180 175 0
71 -178 -181 176 0
71 -179 -180 176 0
71 -179 -181 177 0
71 -62 180 0
71 -61 180 0
71 -61 -62 181 0
71 -60 178 0
71 -59 178 0
71 -59 -60 179 0
71 -174 129 182 0
71 -175 130 182 0
71 -176 131 182 0
71 -177 132 182 0
71 -162 129 182 0
71 -163 130 182 0
71 -164 131 182 0
71 -165 132 182 0
71 -166 133 182 0
71 -162 -174 130 182 0
71 -162 -175 131 182 0
71 -162 -176 132 182 0
71 -162 -177 133 182 0
71 -163 -174 131 182 0
71 -163 -175 132 182 0
71 -163 -176 133 182 0
71 -163 -177 134 182 0
71 -164 -174 132 182 0
71 -164 -175 133 182 0
71 -164 -176 134 182 0
71 -164 -177 135 182 0
71 -165 -174 133 182 0
71 -165 -175 134 182 0
71 -165 -176 135 182 0
71 -165 -177 182 0
71 -166 -174 134 182 0
71 -166 -175 135 182 0
71 -166 -176 182 0
71 -166 -177 129 0
71 -182 128 0
71 -192 111 199 0
71 -193 112 199 0
71 -194 113 199 0
71 -195 114 199 0
71 -196 115 199 0
71 -197 116 199 0
71 -198 117 199 0
71 -184 111 199 0
71 -185 112 199 0
71 -186 113 199 0
71 -187 114 199 0
71 -188 115 199 0
71 -189 116 199 0
71 -190 117 199 0
71 -184 -192 112 199 0
71 -184 -193 113 199 0
71 -184 -194 114 199 0
71 -184 -195 115 199 0
71 -184 -196 116 199 0
71 -184 -197 117 199 0
71 -184 -198 199 0
71 -185 -192 113 199 0
71 -185 -193 114 199 0
71 -185 -194 115 199 0
71 -185 -195 116 199 0
71 -185 -196 117 199 0
71 -185 -197 199 0
71 -185 -198 111 0
71 -186 -192 114 199 0
71 -186 -193 115 199 0
71 -186 -194 116 199 0
71 -186 -195 117 199 0
71 -186 -196 199 0
71 -186 -197 111 0
71 -186 -198 112 0
71 -187 -192 115 199 0
71 -187 -193 116 199 0
71 -187 -194 117 199 0
71 -187 -195 199 0
71 -187 -196 111 0
71 -187 -197 112 0
71 -187 -198 113 0
71 -188 -192 116 199 0
71 -188 -193 117 199 0
71 -188 -194 199 0
71 -188 -195 111 0
71 -188 -196 112 0
71 -188 -197 113 0
71 -188 -198 114 0
71 -189 -192 117 199 0
71 -189 -193 199 0
71 -189 -194 111 0
71 -189 -195 112 0
71 -189 -196 113 0
71 -189 -197 114 0
71 -189 -198 115 0
71 -190 -192 199 0
71 -190 -193 111 0
71 -190 -194 112 0
71 -190 -195 113 0
71 -190 -196 114 0
71 -190 -197 115 0
71 -190 -198 116 0
71 -199 109 0
71 -191 109 0
71 -199 -191 110 0
71 -183 109 0
71 -199 -183 110 0
71 -183 -191 110 0
71 -199 -183 -191 0
71 -208 200 0
71 -209 201 0
71 -205 200 0
71 -206 201 0
71 -207 202 0
71 -205 -208 201 0
71 -205 -209 202 0
71 -206 -208 202 0
71 -206 -209 203 0
71 -207 -208 203 0
71 -207 -209 204 0
71 -49 208 0
71 -48 208 0
71 -48 -49 209 0
71 -47 205 0
71 -210 205 0
71 -211 206 0
71 -210 -47 206 0
71 -211 -47 207 0
71 -46 210 0
71 -45 210 0
71 -45 -46 211 0
71 -218 212 0
71 -219 213 0
71 -216 212 0
71 -217 213 0
71 -216 -218 213 0
71 -216 -219 214 0
71 -217 -218 214 0
71 -217 -219 215 0
71 -53 218 0
71 -52 218 0
71 -52 -53 219 0
71 -51 216 0
71 -50 216 0
71 -50 -51 217 0
71 -212 192 220 0
71 -213 193 220 0
71 -214 194 220 0
71 -215 195 220 0
71 -200 192 220 0
71 -201 193 220 0
71 -202 194 220 0
71 -203 195 220 0
71 -204 196 220 0
71 -200 -212 193 220 0
71 -200 -213 194 220 0
71 -200 -214 195 220 0
71 -200 -215 196 220 0
71 -201 -212 194 220 0
71 -201 -213 195 220 0
71 -201 -214 196 220 0
71 -201 -215 197 220 0
71 -202 -212 195 220 0
71 -202 -213 196 220 0
71 -202 -214 197 220 0
71 -202 -215 198 220 0
71 -203 -212 196 220 0
71 -203 -213 197 220 0
71 -203 -214 198 220 0
71 -203 -215 220 0
71 -204 -212 197 220 0
71 -204 -213 198 220 0
71 -204 -214 220 0
71 -204 -215 192 0
71 -220 191 0
71 -229 221 0
71 -230 222 0
71 -226 221 0
71 -227 222 0
71 -228 223 0
71 -226 -229 222 0
71 -226 -230 223 0
71 -227 -229 223 0
71 -227 -230 224 0
71 -228 -229 224 0
71 -228 -230 225 0
71 -40 229 0
71 -39 229 0
71 -39 -40 230 0
71 -38 226 0
71 -231 226 0
71 -232 227 0
71 -231 -38 227 0
71 -232 -38 228 0
71 -37 231 0
71 -36 231 0
71 -36 -37 232 0
71 -239 233 0
71 -240 234 0
71 -237 233 0
71 -238 234 0
71 -237 -239 234 0
71 -237 -240 235 0
71 -238 -239 235 0
71 -238 -240 236 0
71 -44 239 0
71 -43 239 0
71 -43 -44 240 0
71 -42 237 0
71 -41 237 0
71 -41 -42 238 0
71 -233 184 241 0
71 -234 185 241 0
71 -235 186 241 0
71 -236 187 241 0
71 -221 184 241 0
71 -222 185 241 0
71 -223 186 241 0
71 -224 187 241 0
71 -225 188 241 0
71 -221 -233 185 241 0
71 -221 -234 186 241 0
71 -221 -235 187 241 0
71 -221 -236 188 241 0
71 -222 -233 186 241 0
71 -222 -234 187 241 0
71 -222 -235 188 241 0
71 -222 -236 189 241 0
71 -223 -233 187 241 0
71 -223 -234 188 241 0
71 -223 -235 189 241 0
71 -223 -236 190 241 0
71 -224 -233 188 241 0
71 -224 -234 189 241 0
71 -224 -235 190 241 0
71 -224 -236 241 0
71 -225 -233 189 241 0
71 -225 -234 190 241 0
71 -225 -235 241 0
71 -225 -236 184 0
71 -241 183 0
71 -253 90 260 0
71 -254 91 260 0
71 -255 92 260 0
71 -256 93 260 0
71 -257 94 260 0
71 -258 95 260 0
71 -259 96 260 0
71 -244 90 260 0
71 -245 91 260 0
71 -246 92 260 0
71 -247 93 260 0
71 -248 94 260 0
71 -249 95 260 0
71 -250 96 260 0
71 -244 -253 91 260 0
71 -244 -254 92 260 0
71 -244 -255 93 260 0
71 -244 -256 94 260 0
71 -244 -257 95 260 0
71 -244 -258 96 260 0
71 -244 -259 260 0
71 -245 -253 92 260 0
71 -245 -254 93 260 0
71 -245 -255 94 260 0
71 -245 -256 95 260 0
71 -245 -257 96 260 0
71 -245 -258 260 0
71 -245 -259 90 0
71 -246 -253 93 260 0
71 -246 -254 94 260 0
71 -246 -255 95 260 0
71 -246 -256 96 260 0
71 -246 -257 260 0
71 -246 -258 90 0
71 -246 -259 91 0
71 -247 -253 94 260 0
71 -247 -254 95 260 0
71 -247 -255 96 260 0
71 -247 -256 260 0
71 -247 -257 90 0
71 -247 -258 91 0
71 -247 -259 92 0
71 -248 -253 95 260 0
71 -248 -254 96 260 0
71 -248 -255 260 0
71 -248 -256 90 0
71 -248 -257 91 0
71 -248 -258 92 0
71 -248 -259 93 0
71 -249 -253 96 260 0
71 -249 -254 260 0
71 -249 -255 90 0
71 -249 -256 91 0
71 -249 -257 92 0
71 -249 -258 93 0
71 -249 -259 94 0
71 -250 -253 260 0
71 -250 -254 90 0
71 -250 -255 91 0
71 -250 -256 92 0
71 -250 -257 93 0
71 -250 -258 94 0
71 -250 -259 95 0
71 -260 86 0
71 -251 86 0
71 -260 -251 87 0
71 -252 87 0
71 -260 -252 88 0
71 -242 86 0
71 -260 -242 87 0
71 -243 87 0
71 -260 -243 88 0
71 -242 -251 87 0
71 -260 -242 -251 88 0
71 -242 -252 88 0
71 -260 -242 -252 89 0
71 -243 -251 88 0
71 -260 -243 -251 89 0
71 -243 -252 89 0
71 -260 -243 -252 0
71 -270 253 277 0
71 -271 254 277 0
71 -272 255 277 0
71 -273 256 277 0
71 -274 257 277 0
71 -275 258 277 0
71 -276 259 277 0
71 -262 253 277 0
71 -263 254 277 0
71 -264 255 277 0
71 -265 256 277 0
71 -266 257 277 0
71 -267 258 277 0
71 -268 259 277 0
71 -262 -270 254 277 0
71 -262 -271 255 277 0
71 -262 -272 256 277 0
71 -262 -273 257 277 0
71 -262 -274 258 277 0
71 -262 -275 259 277 0
71 -262 -276 277 0
71 -263 -270 255 277 0
71 -263 -271 256 277 0
71 -263 -272 257 277 0
71 -263 -273 258 277 0
71 -263 -274 259 277 0
71 -263 -275 277 0
71 -263 -276 253 0
71 -264 -270 256 277 0
71 -264 -271 257 277 0
71 -264 -272 258 277 0
71 -264 -273 259 277 0
71 -264 -274 277 0
71 -264 -275 253 0
71 -264 -276 254 0
71 -265 -270 257 277 0
71 -265 -271 258 277 0
71 -265 -272 259 277 0
71 -265 -273 277 0
71 -265 -274 253 0
71 -265 -275 254 0
71 -265 -276 255 0
71 -266 -270 258 277 0
71 -266 -271 259 277 0
71 -266 -272 277 0
71 -266 -273 253 0
71 -266 -274 254 0
71 -266 -275 255 0
71 -266 -276 256 0
71 -267 -270 259 277 0
71 -267 -271 277 0
71 -267 -272 253 0
71 -267 -273 254 0
71 -267 -274 255 0
71 -267 -275 256 0
71 -267 -276 257 0
71 -268 -270 277 0
71 -268 -271 253 0
71 -268 -272 254 0
71 -268 -273 255 0
71 -268 -274 256 0
71 -268 -275 257 0
71 -268 -276 258 0
71 -277 251 0
71 -269 251 0
71 -277 -269 252 0
71 -261 251 0
71 -277 -261 252 0
71 -261 -269 252 0
71 -277 -261 -269 0
71 -284 278 0
71 -285 279 0
71 -282 278 0
71 -283 279 0
71 -282 -284 279 0
71 -282 -285 280 0
71 -283 -284 280 0
71 -283 -285 281 0
71 -31 284 0
71 -30 284 0
71 -30 -31 285 0
71 -29 282 0
71 -28 282 0
71 -28 -29 283 0
71 -292 286 0
71 -293 287 0
71 -290 286 0
71 -291 287 0
71 -290 -292 287 0
71 -290 -293 288 0
71 -291 -292 288 0
71 -291 -293 289 0
71 -35 292 0
71 -34 292 0
71 -34 -35 293 0
71 -33 290 0
71 -32 290 0
71 -32 -33 291 0
71 -286 270 294 0
71 -287 271 294 0
71 -288 272 294 0
71 -289 273 294 0
71 -278 270 294 0
71 -279 271 294 0
71 -280 272 294 0
71 -281 273 294 0
71 -278 -286 271 294 0
71 -278 -287 272 294 0
71 -278 -288 273 294 0
71 -278 -289 274 294 0
71 -279 -286 272 294 0
71 -279 -287 273 294 0
71 -279 -288 274 294 0
71 -279 -289 275 294 0
71 -280 -286 273 294 0
71 -280 -287 274 294 0
71 -280 -288 275 294 0
71 -280 -289 276 294 0
71 -281 -286 274 294 0
71 -281 -287 275 294 0
71 -281 -288 276 294 0
71 -281 -289 294 0
71 -294 269 0
71 -303 295 0
71 -304 296 0
71 -300 295 0
71 -301 296 0
71 -302 297 0
71 -300 -303 296 0
71 -300 -304 297 0
71 -301 -303 297 0
71 -301 -304 298 0
71 -302 -303 298 0
71 -302 -304 299 0
71 -23 303 0
71 -22 303 0
71 -22 -23 304 0
71 -21 300 0
71 -305 300 0
71 -306 301 0
71 -305 -21 301 0
71 -306 -21 302 0
71 -20 305 0
71 -19 305 0
71 -19 -20 306 0
71 -313 307 0
71 -314 308 0
71 -311 307 0
71 -312 308 0
71 -311 -313 308 0
71 -311 -314 309 0
71 -312 -313 309 0
71 -312 -314 310 0
71 -27 313 0
71 -26 313 0
71 -26 -27 314 0
71 -25 311 0
71 -24 311 0
71 -24 -25 312 0
71 -307 262 315 0
71 -308 263 315 0
71 -309 264 315 0
71 -310 265 315 0
71 -295 262 315 0
71 -296 263 315 0
71 -297 264 315 0
71 -298 265 315 0
71 -299 266 315 0
71 -295 -307 263 315 0
71 -295 -308 264 315 0
71 -295 -309 265 315 0
71 -295 -310 266 315 0
71 -296 -307 264 315 0
71 -296 -308 265 315 0
71 -296 -309 266 315 0
71 -296 -310 267 315 0
71 -297 -307 265 315 0
71 -297 -308 266 315 0
71 -297 -309 267 315 0
71 -297 -310 268 315 0
71 -298 -307 266 315 0
71 -298 -308 267 315 0
71 -298 -309 268 315 0
71 -298 -310 315 0
71 -299 -307 267 315 0
71 -299 -308 268 315 0
71 -299 -309 315 0
71 -299 -310 262 0
71 -315 261 0
71 -325 244 332 0
71 -326 245 332 0
71 -327 246 332 0
71 -328 247 332 0
71 -329 248 332 0
71 -330 249 332 0
71 -331 250 332 0
71 -317 244 332 0
71 -318 245 332 0
71 -319 246 332 0
71 -320 247 332 0
71 -321 248 332 0
71 -322 249 332 0
71 -323 250 332 0
71 -317 -325 245 332 0
71 -317 -326 246 332 0
71 -317 -327 247 332 0
71 -317 -328 248 332 0
71 -317 -329 249 332 0
71 -317 -330 250 332 0
71 -317 -331 332 0
71 -318 -325 246 332 0
71 -318 -326 247 332 0
71 -318 -327 248 332 0
71 -318 -328 249 332 0
71 -318 -329 250 332 0
71 -318 -330 332 0
71 -318 -331 244 0
71 -319 -325 247 332 0
71 -319 -326 248 332 0
71 -319 -327 249 332 0
71 -319 -328 250 332 0
71 -319 -329 332 0
71 -319 -330 244 0
71 -319 -331 245 0
71 -320 -325 248 332 0
71 -320 -326 249 332 0
71 -320 -327 250 332 0
71 -320 -328 332 0
71 -320 -329 244 0
71 -320 -330 245 0
71 -320 -331 246 0
71 -321 -325 249 332 0
71 -321 -326 250 332 0
71 -321 -327 332 0
71 -321 -328 244 0
71 -321 -329 245 0
71 -321 -330 246 0
71 -321 -331 247 0
71 -322 -325 250 332 0
71 -322 -326 332 0
71 -322 -327 244 0
71 -322 -328 245 0
71 -322 -329 246 0
71 -322 -330 247 0
71 -322 -331 248 0
71 -323 -325 332 0
71 -323 -326 244 0
71 -323 -327 245 0
71 -323 -328 246 0
71 -323 -329 247 0
71 -323 -330 248 0
71 -323 -331 249 0
71 -332 242 0
71 -324 242 0
71 -332 -324 243 0
71 -316 242 0
71 -332 -316 243 0
71 -316 -324 243 0
71 -332 -316 -324 0
71 -341 333 0
71 -342 334 0
71 -338 333 0
71 -339 334 0
71 -340 335 0
71 -338 -341 334 0
71 -338 -342 335 0
71 -339 -341 335 0
71 -339 -342 336 0
71 -340 -341 336 0
71 -340 -342 337 0
71 -14 341 0
71 -13 341 0
71 -13 -14 342 0
71 -12 338 0
71 -343 338 0
71 -344 339 0
71 -343 -12 339 0
71 -344 -12 340 0
71 -11 343 0
71 -10 343 0
71 -10 -11 344 0
71 -351 345 0
71 -352 346 0
71 -349 345 0
71 -350 346 0
71 -349 -351 346 0
71 -349 -352 347 0
71 -350 -351 347 0
71 -350 -352 348 0
71 -18 351 0
71 -17 351 0
71 -17 -18 352 0
71 -16 349 0
71 -15 349 0
71 -15 -16 350 0
71 -345 325 353 0
71 -346 326 353 0
71 -347 327 353 0
71 -348 328 353 0
71 -333 325 353 0
71 -334 326 353 0
71 -335 327 353 0
71 -336 328 353 0
71 -337 329 353 0
71 -333 -345 326 353 0
71 -333 -346 327 353 0
71 -333 -347 328 353 0
71 -333 -348 329 353 0
71 -334 -345 327 353 0
71 -334 -346 328 353 0
71 -334 -347 329 353 0
71 -334 -348 330 353 0
71 -335 -345 328 353 0
71 -335 -346 329 353 0
71 -335 -347 330 353 0
71 -335 -348 331 353 0
71 -336 -345 329 353 0
71 -336 -346 330 353 0
71 -336 -347 331 353 0
71 -336 -348 353 0
71 -337 -345 330 353 0
71 -337 -346 331 353 0
71 -337 -347 353 0
71 -337 -348 325 0
71 -353 324 0
71 -362 354 0
71 -363 355 0
71 -359 354 0
71 -360 355 0
71 -361 356 0
71 -359 -362 355 0
71 -359 -363 356 0
71 -360 -362 356 0
71 -360 -363 357 0
71 -361 -362 357 0
71 -361 -363 358 0
71 -5 362 0
71 -4 362 0
71 -4 -5 363 0
71 -3 359 0
71 -364 359 0
71 -365 360 0
71 -364 -3 360 0
71 -365 -3 361 0
71 -2 364 0
71 -1 364 0
71 -1 -2 365 0
71 -372 366 0
71 -373 367 0
71 -370 366 0
71 -371 367 0
71 -370 -372 367 0
71 -370 -373 368 0
71 -371 -372 368 0
71 -371 -373 369 0
71 -9 372 0
71 -8 372 0
71 -8 -9 373 0
71 -7 370 0
71 -6 370 0
71 -6 -7 371 0
71 -366 317 374 0
71 -367 318 374 0
71 -368 319 374 0
71 -369 320 374 0
71 -354 317 374 0
71 -355 318 374 0
71 -356 319 374 0
71 -357 320 374 0
71 -358 321 374 0
71 -354 -366 318 374 0
71 -354 -367 319 374 0
71 -354 -368 320 374 0
71 -354 -369 321 374 0
71 -355 -366 319 374 0
71 -355 -367 320 374 0
71 -355 -368 321 374 0
71 -355 -369 322 374 0
71 -356 -366 320 374 0
71 -356 -367 321 374 0
71 -356 -368 322 374 0
71 -356 -369 323 374 0
71 -357 -366 321 374 0
71 -357 -367 322 374 0
71 -357 -368 323 374 0
71 -357 -369 374 0
71 -358 -366 322 374 0
71 -358 -367 323 374 0
71 -358 -368 374 0
71 -358 -369 317 0
71 -374 316 0
71 -75 0
71 -76 0
71 -77 0
71 -78 0
71 -74 -79 0
71 -74 -80 0
71 -74 -81 0
71 -74 -82 0
71 -74 -83 0
71 -74 -84 0
71 -74 -85 0
